71
0 37 20 7 27 9 36 39 65 68 
33 70 48 53 2 11 10 32 50 54 
25 34 38 52 17 29 51 41 58 64 
46 24 43 22 56 57 4 59 3 35 
23 28 15 47 69 55 19 42 44 26 
12 18 61 49 67 31 45 8 60 14 
62 30 21 1 40 6 66 63 13 16 
5 
